
Gurobi 9.1.2 (win64, Java) logging started Mon Nov 15 12:52:31 2021

Academic license - for non-commercial use only - expires 2022-10-30
Gurobi Optimizer version 9.1.2 build v9.1.2rc0 (win64)
Thread count: 6 physical cores, 12 logical processors, using up to 12 threads
Optimize a model with 110 rows, 1000 columns and 2000 nonzeros
Model fingerprint: 0x53042324
Variable types: 0 continuous, 1000 integer (1000 binary)
Coefficient statistics:
  Matrix range     [1e+00, 1e+03]
  Objective range  [5e+00, 1e+03]
  Bounds range     [1e+00, 1e+00]
  RHS range        [1e+00, 3e+03]
Found heuristic solution: objective 25445.000000
Presolve time: 0.02s
Presolved: 110 rows, 1000 columns, 2000 nonzeros
Variable types: 0 continuous, 1000 integer (1000 binary)
Presolved: 110 rows, 1000 columns, 2000 nonzeros


Root relaxation: objective 3.827728e+04, 133 iterations, 0.00 seconds

    Nodes    |    Current Node    |     Objective Bounds      |     Work
 Expl Unexpl |  Obj  Depth IntInf | Incumbent    BestBd   Gap | It/Node Time

     0     0 38277.2836    0   12 25445.0000 38277.2836  50.4%     -    0s
H    0     0                    37227.000000 38277.2836  2.82%     -    0s
H    0     0                    37953.000000 38277.2836  0.85%     -    0s
     0     0 38277.2836    0   18 37953.0000 38277.2836  0.85%     -    1s
H    0     0                    38053.000000 38277.2836  0.59%     -    2s
H    0     0                    38176.000000 38277.2836  0.27%     -    2s
     0     0 38277.2836    0   23 38176.0000 38277.2836  0.27%     -    2s
     0     0 38251.1691    0   19 38176.0000 38251.1691  0.20%     -    2s
     0     0 38251.1691    0   12 38176.0000 38251.1691  0.20%     -    2s
     0     0 38251.1691    0   26 38176.0000 38251.1691  0.20%     -    3s
     0     0 38251.1691    0   27 38176.0000 38251.1691  0.20%     -    3s
     0     0 38244.1691    0   27 38176.0000 38244.1691  0.18%     -    3s
     0     0 38244.1691    0   29 38176.0000 38244.1691  0.18%     -    3s
     0     0 38244.1691    0   35 38176.0000 38244.1691  0.18%     -    3s
     0     0 38244.1691    0   12 38176.0000 38244.1691  0.18%     -    3s
     0     2 38244.1691    0    8 38176.0000 38244.1691  0.18%     -    3s
  1597  1260 38216.1865   36   19 38176.0000 38242.3334  0.17%   5.1    5s
  5019  3265 38200.0001  175    7 38176.0000 38230.7068  0.14%   5.9   10s
* 5578  1825             179    38200.000109 38229.6409  0.08%   5.9   11s
 20561  8666 38220.1172   68   16 38200.0001 38221.2360  0.06%   4.4   16s
 35470 13084 38220.2586   81   15 38200.0001 38220.2586  0.05%   4.4   20s
 37654 13102 38218.6014   91   17 38200.0001 38220.2586  0.05%   4.4   25s
 56324 15194 38212.8511  106   20 38200.0001 38212.8530  0.03%   4.5   30s
 70115  7648     cutoff  102      38200.0001 38212.0281  0.03%   5.0   36s
 77448  7145     cutoff   95      38200.0001 38210.8791  0.03%   5.1   40s
 105247  8759 38205.0583   71   23 38200.0001 38205.0583  0.01%   5.3   45s
 129001  1715     cutoff   86      38200.0001 38202.4213  0.01%   5.8   50s

Cutting planes:
  Gomory: 7
  Cover: 107
  MIR: 3
  StrongCG: 2
  Flow cover: 1
  Zero half: 1
  RLT: 3

Explored 137745 nodes (814058 simplex iterations) in 54.86 seconds
Thread count was 12 (of 12 available processors)

Solution count 6: 38200 38176 38053 ... 25445

Optimal solution found (tolerance 1.00e-12)
Best objective 3.820000000000e+04, best bound 3.820000000000e+04, gap 0.0000%
